c uprop, v00.0, 
c reading from data/prog431.c.cnf
c done reading: 0.003645
p cnf 162 776
-81 -93 0
81 93 0
-72 -88 0
72 88 0
-83 -84 0
83 84 0
-75 -78 0
75 78 0
-73 -86 0
73 86 0
-70 -76 0
70 76 0
-90 -96 0
90 96 0
88 -97 0
-88 97 0
-88 -98 0
88 98 0
-84 -93 99 0
-84 -97 99 0
-93 -97 99 0
84 93 -99 0
84 97 -99 0
93 97 -99 0
84 -99 -100 0
93 -99 -100 0
97 -99 -100 0
-84 99 100 0
-93 99 100 0
-97 99 100 0
-84 -93 -97 100 0
84 93 97 -100 0
-78 -88 101 0
-78 -99 101 0
-88 -99 101 0
78 88 -101 0
78 99 -101 0
88 99 -101 0
78 -101 -102 0
88 -101 -102 0
99 -101 -102 0
-78 101 102 0
-88 101 102 0
-99 101 102 0
-78 -88 -99 102 0
78 88 99 -102 0
-73 -84 103 0
-73 -101 103 0
-84 -101 103 0
73 84 -103 0
73 101 -103 0
84 101 -103 0
73 -103 -104 0
84 -103 -104 0
101 -103 -104 0
-73 103 104 0
-84 103 104 0
-101 103 104 0
-73 -84 -101 104 0
73 84 101 -104 0
-70 -78 105 0
-70 -103 105 0
-78 -103 105 0
70 78 -105 0
70 103 -105 0
78 103 -105 0
70 -105 -106 0
78 -105 -106 0
103 -105 -106 0
-70 105 106 0
-78 105 106 0
-103 105 106 0
-70 -78 -103 106 0
70 78 103 -106 0
-73 -90 107 0
-90 -105 107 0
-73 -105 107 0
73 90 -107 0
90 105 -107 0
73 105 -107 0
90 -107 -108 0
73 -107 -108 0
105 -107 -108 0
-90 107 108 0
-73 107 108 0
-105 107 108 0
-73 -90 -105 108 0
73 90 105 -108 0
70 -109 0
107 -109 0
-70 -107 109 0
-70 -95 -107 0
70 -95 107 0
-70 95 107 0
70 95 -107 0
90 -92 0
-92 109 0
-90 92 -109 0
-87 -90 -109 0
-87 90 109 0
87 -90 109 0
87 90 -109 0
-77 -93 0
77 93 0
-69 -98 0
69 98 0
-68 -100 0
68 100 0
-65 -102 0
65 102 0
-62 -104 0
62 104 0
-59 -106 0
59 106 0
-56 -108 0
56 108 0
-55 -95 0
55 95 0
-54 -87 0
54 87 0
-53 -92 0
53 92 0
-52 -66 0
-50 -52 0
50 52 66 0
-49 50 66 0
-49 -50 -66 0
49 50 -66 0
49 -50 66 0
-48 52 0
-48 -63 0
48 -52 63 0
-47 -52 63 0
-47 52 -63 0
47 52 63 0
47 -52 -63 0
-46 48 0
-44 -46 0
44 46 -48 0
-43 44 -48 0
-43 -44 48 0
43 44 48 0
43 -44 -48 0
-42 46 0
-42 -60 0
42 -46 60 0
-41 -46 60 0
-41 46 -60 0
41 46 60 0
41 -46 -60 0
-40 42 0
-38 -40 0
38 40 -42 0
-37 38 -42 0
-37 -38 42 0
37 38 42 0
37 -38 -42 0
40 -80 0
-57 -80 0
-40 57 80 0
-36 -40 57 0
-36 40 -57 0
36 40 57 0
36 -40 -57 0
80 -110 0
-110 -111 0
-80 110 111 0
-80 111 -113 0
80 -111 -113 0
80 111 113 0
-80 -111 113 0
50 -114 0
66 -114 0
-50 -66 114 0
-50 -66 -115 0
50 66 -115 0
-50 66 115 0
50 -66 115 0
-50 -63 116 0
-63 -114 116 0
-50 -114 116 0
50 63 -116 0
63 114 -116 0
50 114 -116 0
63 -116 -117 0
50 -116 -117 0
114 -116 -117 0
-63 116 117 0
-50 116 117 0
-114 116 117 0
-50 -63 -114 117 0
50 63 114 -117 0
-44 -63 118 0
-44 -116 118 0
-63 -116 118 0
44 63 -118 0
44 116 -118 0
63 116 -118 0
44 -118 -119 0
63 -118 -119 0
116 -118 -119 0
-44 118 119 0
-63 118 119 0
-116 118 119 0
-44 -63 -116 119 0
44 63 116 -119 0
-44 -60 120 0
-60 -118 120 0
-44 -118 120 0
44 60 -120 0
60 118 -120 0
44 118 -120 0
60 -120 -121 0
44 -120 -121 0
118 -120 -121 0
-60 120 121 0
-44 120 121 0
-118 120 121 0
-44 -60 -118 121 0
44 60 118 -121 0
-38 -60 122 0
-38 -120 122 0
-60 -120 122 0
38 60 -122 0
38 120 -122 0
60 120 -122 0
38 -122 -123 0
60 -122 -123 0
120 -122 -123 0
-38 122 123 0
-60 122 123 0
-120 122 123 0
-38 -60 -120 123 0
38 60 120 -123 0
-38 -57 124 0
-57 -122 124 0
-38 -122 124 0
38 57 -124 0
57 122 -124 0
38 122 -124 0
57 -124 -125 0
38 -124 -125 0
122 -124 -125 0
-57 124 125 0
-38 124 125 0
-122 124 125 0
-38 -57 -122 125 0
38 57 122 -125 0
-57 -111 126 0
-111 -124 126 0
-57 -124 126 0
57 111 -126 0
111 124 -126 0
57 124 -126 0
111 -126 -127 0
57 -126 -127 0
124 -126 -127 0
-111 126 127 0
-57 126 127 0
-124 126 127 0
-57 -111 -124 127 0
57 111 124 -127 0
111 -128 0
126 -128 0
-111 -126 128 0
-111 -126 -129 0
111 126 -129 0
-111 126 129 0
111 -126 129 0
117 -130 0
66 -130 0
-66 -117 130 0
-66 -117 -131 0
66 117 -131 0
66 -117 131 0
-66 117 131 0
-50 -119 132 0
-119 -130 132 0
-50 -130 132 0
50 119 -132 0
119 130 -132 0
50 130 -132 0
119 -132 -133 0
50 -132 -133 0
130 -132 -133 0
-119 132 133 0
-50 132 133 0
-130 132 133 0
-50 -119 -130 133 0
50 119 130 -133 0
-63 -121 134 0
-121 -132 134 0
-63 -132 134 0
63 121 -134 0
121 132 -134 0
63 132 -134 0
121 -134 -135 0
63 -134 -135 0
132 -134 -135 0
-121 134 135 0
-63 134 135 0
-132 134 135 0
-63 -121 -132 135 0
63 121 132 -135 0
-44 -123 136 0
-123 -134 136 0
-44 -134 136 0
44 123 -136 0
123 134 -136 0
44 134 -136 0
123 -136 -137 0
44 -136 -137 0
134 -136 -137 0
-123 136 137 0
-44 136 137 0
-134 136 137 0
-44 -123 -134 137 0
44 123 134 -137 0
-60 -125 138 0
-125 -136 138 0
-60 -136 138 0
60 125 -138 0
125 136 -138 0
60 136 -138 0
125 -138 -139 0
60 -138 -139 0
136 -138 -139 0
-125 138 139 0
-60 138 139 0
-136 138 139 0
-60 -125 -136 139 0
60 125 136 -139 0
-38 -127 140 0
-127 -138 140 0
-38 -138 140 0
38 127 -140 0
127 138 -140 0
38 138 -140 0
127 -140 -141 0
38 -140 -141 0
138 -140 -141 0
-127 140 141 0
-38 140 141 0
-138 140 141 0
-38 -127 -138 141 0
38 127 138 -141 0
-57 -129 142 0
-129 -140 142 0
-57 -140 142 0
57 129 -142 0
129 140 -142 0
57 140 -142 0
129 -142 -143 0
57 -142 -143 0
140 -142 -143 0
-129 142 143 0
-57 142 143 0
-140 142 143 0
-57 -129 -140 143 0
57 129 140 -143 0
-111 -128 144 0
-128 -142 144 0
-111 -142 144 0
111 128 -144 0
128 142 -144 0
111 142 -144 0
128 -144 -145 0
111 -144 -145 0
142 -144 -145 0
-128 144 145 0
-111 144 145 0
-142 144 145 0
-111 -128 -142 145 0
111 128 142 -145 0
-94 133 0
66 -94 0
-66 94 -133 0
-66 -89 -133 0
66 -89 133 0
66 89 -133 0
-66 89 133 0
-50 85 -135 0
85 -94 -135 0
-50 85 -94 0
50 -85 135 0
-85 94 135 0
50 -85 94 0
-79 -85 135 0
50 -79 -85 0
-79 -85 94 0
79 85 -135 0
-50 79 85 0
79 85 -94 0
-50 79 -94 -135 0
50 -79 94 135 0
-63 74 -137 0
74 -85 -137 0
-63 74 -85 0
63 -74 137 0
-74 85 137 0
63 -74 85 0
-71 -74 137 0
63 -71 -74 0
-71 -74 85 0
71 74 -137 0
-63 71 74 0
71 74 -85 0
-63 71 -85 -137 0
63 -71 85 137 0
-44 91 -139 0
-74 91 -139 0
-44 -74 91 0
44 -91 139 0
74 -91 139 0
44 74 -91 0
-67 -91 139 0
44 -67 -91 0
-67 74 -91 0
67 91 -139 0
-44 67 91 0
67 -74 91 0
-44 67 -74 -139 0
44 -67 74 139 0
51 -60 -141 0
51 -91 -141 0
51 -60 -91 0
-51 60 141 0
-51 91 141 0
-51 60 91 0
-51 -64 141 0
-51 60 -64 0
-51 -64 91 0
51 64 -141 0
51 -60 64 0
51 64 -91 0
-60 64 -91 -141 0
60 -64 91 141 0
-38 45 -143 0
45 -51 -143 0
-38 45 -51 0
38 -45 143 0
-45 51 143 0
38 -45 51 0
-45 -61 143 0
38 -45 -61 0
-45 51 -61 0
45 61 -143 0
-38 45 61 0
45 -51 61 0
-38 -51 61 -143 0
38 51 -61 143 0
39 -57 -145 0
39 -45 -145 0
39 -45 -57 0
-39 57 145 0
-39 45 145 0
-39 45 57 0
-39 -58 145 0
-39 57 -58 0
-39 45 -58 0
39 58 -145 0
39 -57 58 0
39 -45 58 0
-45 -57 58 -145 0
45 57 -58 145 0
-111 112 -144 0
-39 112 -144 0
-39 -111 112 0
111 -112 144 0
39 -112 144 0
39 111 -112 0
-112 144 -146 0
111 -112 -146 0
39 -112 -146 0
112 -144 146 0
-111 112 146 0
-39 112 146 0
-39 -111 -144 146 0
39 111 144 -146 0
79 -147 0
66 -147 0
-66 -79 147 0
-66 -79 -148 0
66 79 -148 0
66 -79 148 0
-66 79 148 0
-50 -71 149 0
-71 -147 149 0
-50 -147 149 0
50 71 -149 0
71 147 -149 0
50 147 -149 0
71 -149 -150 0
50 -149 -150 0
147 -149 -150 0
-71 149 150 0
-50 149 150 0
-147 149 150 0
-50 -71 -147 150 0
50 71 147 -150 0
-63 -67 151 0
-67 -149 151 0
-63 -149 151 0
63 67 -151 0
67 149 -151 0
63 149 -151 0
67 -151 -152 0
63 -151 -152 0
149 -151 -152 0
-67 151 152 0
-63 151 152 0
-149 151 152 0
-63 -67 -149 152 0
63 67 149 -152 0
-44 -64 153 0
-64 -151 153 0
-44 -151 153 0
44 64 -153 0
64 151 -153 0
44 151 -153 0
64 -153 -154 0
44 -153 -154 0
151 -153 -154 0
-64 153 154 0
-44 153 154 0
-151 153 154 0
-44 -64 -151 154 0
44 64 151 -154 0
-60 -61 155 0
-61 -153 155 0
-60 -153 155 0
60 61 -155 0
61 153 -155 0
60 153 -155 0
61 -155 -156 0
60 -155 -156 0
153 -155 -156 0
-61 155 156 0
-60 155 156 0
-153 155 156 0
-60 -61 -153 156 0
60 61 153 -156 0
-38 -58 157 0
-58 -155 157 0
-38 -155 157 0
38 58 -157 0
58 155 -157 0
38 155 -157 0
58 -157 -158 0
38 -157 -158 0
155 -157 -158 0
-58 157 158 0
-38 157 158 0
-155 157 158 0
-38 -58 -155 158 0
38 58 155 -158 0
-57 -146 159 0
-146 -157 159 0
-57 -157 159 0
57 146 -159 0
146 157 -159 0
57 157 -159 0
146 -159 -160 0
57 -159 -160 0
157 -159 -160 0
-146 159 160 0
-57 159 160 0
-157 159 160 0
-57 -146 -157 160 0
57 146 157 -160 0
-111 -112 161 0
-112 -159 161 0
-111 -159 161 0
111 112 -161 0
112 159 -161 0
111 159 -161 0
112 -161 -162 0
111 -161 -162 0
159 -161 -162 0
-112 161 162 0
-111 161 162 0
-159 161 162 0
-111 -112 -159 162 0
111 112 159 -162 0
-66 -82 0
-82 -115 0
66 82 115 0
-35 66 115 0
-35 -66 -115 0
35 -66 115 0
35 66 -115 0
-34 82 0
-34 -131 0
34 -82 131 0
-33 -82 131 0
-33 82 -131 0
33 82 131 0
33 -82 -131 0
-32 34 0
-32 -89 0
32 -34 89 0
-31 -34 89 0
-31 34 -89 0
31 34 89 0
31 -34 -89 0
-30 32 0
-30 -148 0
30 -32 148 0
-29 -32 148 0
-29 32 -148 0
29 32 148 0
29 -32 -148 0
-28 30 0
-28 -150 0
28 -30 150 0
-27 -30 150 0
-27 30 -150 0
27 30 150 0
27 -30 -150 0
-26 28 0
-26 -152 0
26 -28 152 0
-25 -28 152 0
-25 28 -152 0
25 28 152 0
25 -28 -152 0
-24 26 0
-24 -154 0
24 -26 154 0
-23 -26 154 0
-23 26 -154 0
23 26 154 0
23 -26 -154 0
-22 24 0
-22 -156 0
22 -24 156 0
-21 -24 156 0
-21 24 -156 0
21 24 156 0
21 -24 -156 0
-20 22 0
-20 -158 0
20 -22 158 0
-19 -22 158 0
-19 22 -158 0
19 22 158 0
19 -22 -158 0
-18 20 0
-18 -160 0
18 -20 160 0
-17 -20 160 0
-17 20 -160 0
17 20 160 0
17 -20 -160 0
-16 18 0
-16 -162 0
16 -18 162 0
-15 -18 162 0
-15 18 -162 0
15 18 162 0
15 -18 -162 0
-14 16 0
-14 -161 0
14 -16 161 0
-13 -16 161 0
-13 16 -161 0
13 16 161 0
13 -16 -161 0
-12 93 0
-12 66 0
12 -66 -93 0
66 -93 0
-66 93 0
11 -98 -115 0
11 -12 -98 0
11 -12 -115 0
-11 98 115 0
-11 12 98 0
-11 12 115 0
-11 98 0
-11 115 0
-11 12 0
12 98 115 0
10 -100 -131 0
10 -11 -100 0
10 -11 -131 0
-10 100 131 0
-10 11 100 0
-10 11 131 0
-10 100 0
-10 131 0
-10 11 0
11 100 131 0
9 -89 -102 0
9 -10 -102 0
9 -10 -89 0
-9 89 102 0
-9 10 102 0
-9 10 89 0
-9 102 0
-9 89 0
-9 10 0
10 89 102 0
8 -104 -148 0
8 -9 -104 0
8 -9 -148 0
-8 104 148 0
-8 9 104 0
-8 9 148 0
8 -104 0
8 -148 0
8 -9 0
-9 -104 -148 0
7 -106 -150 0
7 -8 -106 0
7 -8 -150 0
-7 106 150 0
-7 8 106 0
-7 8 150 0
7 -106 0
7 -150 0
7 -8 0
-8 -106 -150 0
6 -108 -152 0
6 -7 -108 0
6 -7 -152 0
-6 108 152 0
-6 7 108 0
-6 7 152 0
6 -108 0
6 -152 0
6 -7 0
-7 -108 -152 0
5 -95 -154 0
5 -6 -95 0
5 -6 -154 0
-5 95 154 0
-5 6 95 0
-5 6 154 0
5 -95 0
5 -154 0
5 -6 0
-6 -95 -154 0
4 -87 -156 0
4 -5 -87 0
4 -5 -156 0
-4 87 156 0
-4 5 87 0
-4 5 156 0
4 -87 0
4 -156 0
4 -5 0
-5 -87 -156 0
3 -92 -158 0
3 -4 -92 0
3 -4 -158 0
-3 92 158 0
-3 4 92 0
-3 4 158 0
3 -92 0
3 -158 0
3 -4 0
-4 -92 -158 0
-2 160 0
-2 3 0
2 -3 -160 0
3 -160 0
-3 160 0
-1 162 0
-1 2 0
1 -2 -162 0
2 -162 0
-2 162 0
-1 -161 0
1 -161 0
-1 161 0
